set VV := 0 1 2 3 4 5 6 7 8 9 10 11 12 13 14 15 16 17 18 19 20 21 22 23 24 25 26 27 28 29 30 31 32 33 34 35 36 37 38 39 40 41 ;
set VS := 0 1 2 3 4 5 6 7 8 9 10 11 12 13 14 15 16 17 18 19 20 21 22 23 24 25 26 27 28 29 30 31 32 33 34 35 36 37 38 39 40 41 42 43 44 45 46 47 48 49 50 51 52 53 54 55 56 57 58 59 60 61 62 63 64 65 66 67 68 69 70 71 72 73 74 75 76 77 78 79 80 81 82 83 84 85 86 87 88 ;
param cv := 
0 11
1 21
2 10
3 18
4 22
5 10
6 16
7 13
8 13
9 21
10 15
11 21
12 14
13 25
14 15
15 19
16 12
17 18
18 23
19 18
20 18
21 11
22 15
23 17
24 17
25 13
26 13
27 22
28 13
29 10
30 10
31 18
32 19
33 20
34 16
35 11
36 23
37 21
38 21
39 23
40 10
41 13
;
param cs := 
0 20
1 32
2 26
3 36
4 31
5 34
6 24
7 32
8 31
9 24
10 23
11 29
12 22
13 27
14 31
15 24
16 29
17 25
18 36
19 20
20 31
21 36
22 31
23 32
24 29
25 23
26 39
27 36
28 25
29 38
30 30
31 23
32 40
33 37
34 24
35 21
36 37
37 26
38 28
39 27
40 27
41 38
42 36
43 39
44 32
45 40
46 28
47 20
48 31
49 21
50 38
51 20
52 34
53 22
54 23
55 30
56 24
57 37
58 35
59 21
60 24
61 36
62 35
63 35
64 27
65 34
66 29
67 20
68 34
69 39
70 31
71 21
72 26
73 30
74 40
75 21
76 29
77 20
78 25
79 34
80 40
81 36
82 37
83 27
84 23
85 34
86 26
87 35
88 39
;
param bv:	 0 1 2 3 4 5 6 7 8 9 10 11 12 13 14 15 16 17 18 19 20 21 22 23 24 25 26 27 28 29 30 31 32 33 34 35 36 37 38 39 40 41 := 
		0 0 11 0 0 0 0 0 0 0 0 0 22 0 0 0 0 0 0 0 0 22 0 0 0 0 0 0 0 0 0 0 0 0 0 0 0 0 0 0 0 0 0 
		1 0 0 0 0 0 0 12 18 0 0 0 0 10 0 13 0 0 0 0 0 0 0 0 0 0 0 0 0 0 11 0 0 0 0 0 0 0 0 0 0 0 0 
		2 0 0 0 0 0 0 0 0 0 0 0 11 19 0 21 0 0 0 0 0 0 0 0 0 0 0 0 0 0 0 0 0 0 0 0 0 15 0 0 0 0 0 
		3 0 0 0 0 0 0 0 0 0 0 0 0 0 14 0 0 0 17 0 0 0 17 0 12 0 0 0 0 0 0 0 0 0 0 17 0 0 0 0 0 0 0 
		4 0 0 0 0 0 0 0 0 0 12 0 0 0 0 0 0 0 0 0 0 0 12 0 0 16 0 14 21 12 0 0 0 0 0 0 0 0 0 23 0 0 0 
		5 0 0 0 0 0 0 0 0 0 0 0 0 0 25 0 0 18 0 17 0 0 0 0 0 0 0 0 0 0 0 0 0 0 0 0 0 0 0 0 0 21 0 
		6 0 0 0 0 0 0 0 0 0 0 0 0 15 0 0 0 0 0 15 0 0 0 11 0 0 0 16 11 0 15 0 12 0 0 0 0 0 0 0 0 0 0 
		7 0 0 0 0 0 0 0 0 0 0 0 0 0 0 25 0 0 0 0 0 0 0 0 0 0 17 0 0 0 0 0 15 21 0 0 0 0 0 0 0 0 0 
		8 0 0 0 0 0 0 0 0 0 0 0 0 0 0 13 0 0 0 0 22 15 0 0 0 0 0 0 0 0 0 25 0 0 0 0 24 0 16 0 0 23 0 
		9 0 0 0 0 0 0 0 0 0 0 0 18 0 0 0 0 0 0 0 0 0 0 0 0 0 0 0 0 0 0 21 0 0 0 17 0 0 0 0 0 0 0 
		10 0 0 0 0 0 0 0 0 0 0 0 0 0 0 0 14 0 0 0 0 22 22 0 21 0 0 0 0 0 0 0 0 0 0 0 0 0 0 0 0 0 0 
		11 0 0 0 0 0 0 0 0 0 0 0 0 0 0 0 0 0 0 0 24 0 0 11 0 0 0 0 0 0 25 0 0 0 0 0 19 0 0 0 0 24 0 
		12 0 0 0 0 0 0 0 0 0 0 0 0 0 0 13 0 0 0 0 0 0 0 0 0 0 0 0 0 0 0 0 0 0 0 0 0 0 0 0 0 15 20 
		13 0 0 0 0 0 0 0 0 0 0 0 0 0 0 0 0 0 13 0 0 0 17 0 0 13 0 0 0 0 0 0 0 0 0 0 0 0 0 0 0 0 0 
		14 0 0 0 0 0 0 0 0 0 0 0 0 0 0 0 0 0 0 0 0 0 0 0 0 0 18 17 0 0 0 0 0 0 13 12 0 10 0 0 0 0 0 
		15 0 0 0 0 0 0 0 0 0 0 0 0 0 0 0 0 0 0 0 0 0 0 0 0 0 0 0 0 0 0 0 0 0 0 10 0 0 0 0 0 0 0 
		16 0 0 0 0 0 0 0 0 0 0 0 0 0 0 0 0 0 0 23 0 0 14 0 19 0 0 0 0 0 0 0 0 0 13 0 0 0 0 0 0 0 0 
		17 0 0 0 0 0 0 0 0 0 0 0 0 0 0 0 0 0 0 16 0 0 0 0 0 0 0 0 0 0 0 0 0 0 0 0 0 0 0 0 0 0 25 
		18 0 0 0 0 0 0 0 0 0 0 0 0 0 0 0 0 0 0 0 0 0 19 0 0 0 0 0 0 0 0 0 0 0 0 0 0 0 0 0 0 0 0 
		19 0 0 0 0 0 0 0 0 0 0 0 0 0 0 0 0 0 0 0 0 10 0 0 0 0 0 0 0 0 0 0 0 0 0 0 0 0 0 0 0 0 0 
		20 0 0 0 0 0 0 0 0 0 0 0 0 0 0 0 0 0 0 0 0 0 0 0 22 0 0 0 0 0 0 17 0 0 0 0 0 0 0 0 0 0 0 
		21 0 0 0 0 0 0 0 0 0 0 0 0 0 0 0 0 0 0 0 0 0 0 0 0 0 0 0 22 0 0 0 0 0 17 0 0 21 0 19 0 0 0 
		22 0 0 0 0 0 0 0 0 0 0 0 0 0 0 0 0 0 0 0 0 0 0 0 0 0 0 12 0 17 0 0 0 0 0 0 0 0 15 0 0 0 13 
		23 0 0 0 0 0 0 0 0 0 0 0 0 0 0 0 0 0 0 0 0 0 0 0 0 0 20 0 0 0 0 14 12 0 0 13 0 0 0 0 0 0 20 
		24 0 0 0 0 0 0 0 0 0 0 0 0 0 0 0 0 0 0 0 0 0 0 0 0 0 0 0 19 0 0 0 13 0 0 0 0 0 11 0 0 0 21 
		25 0 0 0 0 0 0 0 0 0 0 0 0 0 0 0 0 0 0 0 0 0 0 0 0 0 0 20 0 0 0 0 0 24 0 0 0 0 0 0 0 0 0 
		26 0 0 0 0 0 0 0 0 0 0 0 0 0 0 0 0 0 0 0 0 0 0 0 0 0 0 0 0 0 0 0 0 0 16 25 0 0 0 0 0 0 0 
		27 0 0 0 0 0 0 0 0 0 0 0 0 0 0 0 0 0 0 0 0 0 0 0 0 0 0 0 0 0 13 0 16 0 0 0 0 0 0 0 0 0 0 
		28 0 0 0 0 0 0 0 0 0 0 0 0 0 0 0 0 0 0 0 0 0 0 0 0 0 0 0 0 0 0 0 0 0 0 0 0 20 0 0 0 0 0 
		29 0 0 0 0 0 0 0 0 0 0 0 0 0 0 0 0 0 0 0 0 0 0 0 0 0 0 0 0 0 0 0 0 0 24 0 0 0 19 0 0 0 19 
		30 0 0 0 0 0 0 0 0 0 0 0 0 0 0 0 0 0 0 0 0 0 0 0 0 0 0 0 0 0 0 0 0 0 0 0 20 0 0 0 0 0 0 
		31 0 0 0 0 0 0 0 0 0 0 0 0 0 0 0 0 0 0 0 0 0 0 0 0 0 0 0 0 0 0 0 0 0 16 0 0 0 0 0 0 0 24 
		32 0 0 0 0 0 0 0 0 0 0 0 0 0 0 0 0 0 0 0 0 0 0 0 0 0 0 0 0 0 0 0 0 0 0 0 0 0 0 0 0 0 0 
		33 0 0 0 0 0 0 0 0 0 0 0 0 0 0 0 0 0 0 0 0 0 0 0 0 0 0 0 0 0 0 0 0 0 0 0 0 0 0 0 0 0 0 
		34 0 0 0 0 0 0 0 0 0 0 0 0 0 0 0 0 0 0 0 0 0 0 0 0 0 0 0 0 0 0 0 0 0 0 0 0 0 0 0 0 0 0 
		35 0 0 0 0 0 0 0 0 0 0 0 0 0 0 0 0 0 0 0 0 0 0 0 0 0 0 0 0 0 0 0 0 0 0 0 0 0 0 0 0 0 0 
		36 0 0 0 0 0 0 0 0 0 0 0 0 0 0 0 0 0 0 0 0 0 0 0 0 0 0 0 0 0 0 0 0 0 0 0 0 0 0 0 0 11 0 
		37 0 0 0 0 0 0 0 0 0 0 0 0 0 0 0 0 0 0 0 0 0 0 0 0 0 0 0 0 0 0 0 0 0 0 0 0 0 0 0 19 0 0 
		38 0 0 0 0 0 0 0 0 0 0 0 0 0 0 0 0 0 0 0 0 0 0 0 0 0 0 0 0 0 0 0 0 0 0 0 0 0 0 0 0 0 0 
		39 0 0 0 0 0 0 0 0 0 0 0 0 0 0 0 0 0 0 0 0 0 0 0 0 0 0 0 0 0 0 0 0 0 0 0 0 0 0 0 0 0 0 
		40 0 0 0 0 0 0 0 0 0 0 0 0 0 0 0 0 0 0 0 0 0 0 0 0 0 0 0 0 0 0 0 0 0 0 0 0 0 0 0 0 0 0 
		41 0 0 0 0 0 0 0 0 0 0 0 0 0 0 0 0 0 0 0 0 0 0 0 0 0 0 0 0 0 0 0 0 0 0 0 0 0 0 0 0 0 0 
;
param bs:	 0 1 2 3 4 5 6 7 8 9 10 11 12 13 14 15 16 17 18 19 20 21 22 23 24 25 26 27 28 29 30 31 32 33 34 35 36 37 38 39 40 41 42 43 44 45 46 47 48 49 50 51 52 53 54 55 56 57 58 59 60 61 62 63 64 65 66 67 68 69 70 71 72 73 74 75 76 77 78 79 80 81 82 83 84 85 86 87 88 := 
		0 0 0 0 0 0 30 0 0 33 0 0 0 0 0 0 0 0 0 0 31 0 0 0 0 0 0 0 0 0 0 0 27 0 0 0 0 0 0 30 31 0 27 0 37 0 0 0 0 0 39 0 0 0 0 0 0 0 0 0 0 0 0 0 0 0 0 0 0 0 0 0 0 0 0 0 0 0 0 0 0 0 0 34 0 0 0 0 38 0 
		1 0 0 0 0 0 0 0 0 20 0 0 0 0 0 0 0 0 30 0 0 0 0 0 0 29 0 0 0 0 0 0 0 0 0 0 0 0 20 0 0 0 21 0 0 30 0 0 0 0 0 0 0 0 0 0 0 0 0 0 32 0 0 0 0 0 0 0 0 37 0 0 0 39 0 0 31 0 24 0 0 0 0 0 0 0 0 36 0 0 
		2 0 0 0 0 0 26 0 0 0 0 0 0 0 0 0 0 0 0 0 0 0 0 0 0 0 0 0 0 0 0 0 0 0 31 0 0 0 35 0 30 20 0 0 37 0 0 0 0 0 0 0 0 0 0 34 0 0 0 0 0 40 0 0 0 0 0 0 0 0 0 0 0 0 0 0 0 0 0 0 0 40 0 0 0 22 0 0 0 0 
		3 0 0 0 0 0 0 0 0 0 0 0 0 0 0 0 0 0 0 0 0 0 0 0 0 0 0 0 0 0 0 0 0 20 0 0 26 0 0 0 26 37 0 0 0 0 0 0 0 0 0 0 0 0 23 0 37 0 0 0 0 0 0 0 0 0 21 0 0 0 0 27 0 0 0 0 0 0 0 0 0 0 31 0 27 0 0 0 0 0 
		4 0 0 0 0 0 0 32 0 0 0 0 0 0 0 37 0 0 0 37 0 0 23 0 0 0 0 0 38 0 0 0 0 0 0 0 38 0 0 0 0 0 0 0 0 0 0 0 0 0 0 0 0 0 0 0 0 28 0 0 0 0 0 0 0 0 0 0 0 0 0 26 0 0 0 0 0 0 0 0 0 0 27 38 0 31 0 29 39 0 
		5 30 0 26 0 0 0 0 0 0 0 0 0 0 0 36 0 25 0 0 0 0 0 0 0 0 39 0 0 0 0 0 0 0 0 0 0 0 0 0 0 0 0 22 0 0 0 0 0 0 0 0 0 0 0 0 0 0 0 0 23 0 0 0 0 0 30 33 0 0 0 0 0 34 0 0 0 0 39 0 0 33 0 0 39 36 0 0 0 28 
		6 0 0 0 0 32 0 0 0 0 0 23 0 0 0 0 0 0 0 0 0 0 0 31 0 0 0 0 0 0 0 0 0 35 0 0 0 0 0 0 0 0 0 0 0 0 37 0 0 0 0 25 0 0 0 0 0 0 0 21 0 0 25 0 0 0 0 36 0 0 0 0 0 0 0 23 0 0 0 0 0 33 0 0 0 0 26 0 0 0 
		7 0 0 0 0 0 0 0 0 0 0 0 0 0 0 0 0 0 0 37 0 0 0 0 0 0 0 0 0 0 0 34 0 0 0 0 0 0 0 0 0 0 0 0 0 0 0 0 0 0 0 0 34 0 0 0 0 0 0 24 0 36 0 0 0 0 0 0 0 0 0 35 0 0 0 0 0 0 0 0 0 0 0 0 0 33 0 0 0 0 
		8 33 20 0 0 0 0 0 0 0 0 0 0 0 0 0 0 0 25 0 0 0 0 35 0 0 0 0 0 0 0 0 0 0 0 0 27 0 0 0 21 30 36 0 0 0 0 0 0 0 0 0 0 26 0 0 0 0 0 0 26 0 0 0 0 0 0 0 30 0 0 0 0 0 0 0 0 0 0 0 0 0 36 0 36 0 0 0 0 0 
		9 0 0 0 0 0 0 0 0 0 0 0 24 0 0 0 0 0 0 0 0 0 0 0 0 0 0 0 0 0 38 0 0 0 32 0 0 0 0 0 0 0 0 35 0 31 0 0 0 0 34 0 0 0 0 0 0 0 0 0 33 0 0 0 0 0 0 0 0 0 0 0 0 0 0 0 0 0 0 0 0 0 0 0 0 0 0 0 0 0 
		10 0 0 0 0 0 0 23 0 0 0 0 40 0 0 0 0 0 0 0 0 0 0 0 0 0 0 0 0 0 0 0 0 0 0 0 0 0 0 0 0 22 0 34 0 0 0 0 0 0 0 0 0 0 0 0 27 0 0 0 0 0 0 0 20 0 0 23 0 0 0 0 0 0 0 0 0 32 0 22 0 0 0 0 0 0 0 0 24 0 
		11 0 0 0 0 0 0 0 0 0 24 40 0 0 29 0 0 0 30 0 0 0 0 35 0 26 0 34 0 0 0 0 0 0 0 0 0 0 0 0 0 0 0 0 0 0 38 0 0 0 0 0 0 0 0 0 0 0 0 0 0 0 0 0 0 0 0 20 0 0 0 0 0 0 0 0 0 0 0 0 0 0 0 0 0 38 0 0 0 0 
		12 0 0 0 0 0 0 0 0 0 0 0 0 0 0 0 0 0 0 0 27 0 0 0 0 0 0 23 0 0 0 0 0 31 0 0 25 0 0 29 23 0 24 22 0 0 0 0 0 39 28 0 0 0 0 0 0 0 36 0 0 0 0 0 0 0 0 0 0 0 0 0 0 0 0 0 0 0 21 0 0 0 0 0 0 0 0 0 22 0 
		13 0 0 0 0 0 0 0 0 0 0 0 29 0 0 0 0 0 0 0 26 0 0 0 0 0 0 31 0 0 35 0 0 0 0 0 0 0 0 0 0 0 0 0 0 0 0 0 30 0 0 0 0 29 0 0 0 0 0 0 0 0 0 0 0 0 0 0 0 0 0 0 0 0 0 0 0 0 0 0 0 23 0 0 0 0 0 0 0 0 
		14 0 0 0 0 37 36 0 0 0 0 0 0 0 0 0 0 0 22 0 0 0 0 0 0 26 0 0 0 0 0 31 0 0 0 0 0 0 0 0 0 0 0 35 0 0 0 0 20 27 0 0 0 0 0 0 0 0 0 0 0 23 0 0 0 0 0 0 28 0 33 0 20 0 0 0 0 0 0 0 0 0 0 0 0 0 0 0 0 38 
		15 0 0 0 0 0 0 0 0 0 0 0 0 0 0 0 0 0 0 40 0 0 0 0 0 0 0 0 0 0 0 0 0 0 32 0 0 0 0 0 0 0 0 0 30 0 0 0 0 0 0 0 0 0 0 0 0 0 0 0 0 0 0 0 0 0 0 0 0 0 0 0 40 0 0 0 0 0 0 0 0 24 0 0 0 38 0 32 0 0 
		16 0 0 0 0 0 25 0 0 0 0 0 0 0 0 0 0 0 0 0 0 0 0 26 0 0 0 0 0 0 0 0 0 0 22 24 32 0 0 0 37 0 0 0 0 0 0 0 0 0 0 0 26 0 0 0 0 0 0 0 0 0 0 0 0 32 0 40 0 0 0 0 0 0 0 0 0 0 0 0 0 0 34 0 0 0 0 0 0 0 
		17 0 30 0 0 0 0 0 0 25 0 0 30 0 0 22 0 0 0 0 0 0 0 0 32 0 0 30 36 0 0 0 0 0 0 0 0 0 0 28 0 0 0 28 0 0 0 25 0 0 0 0 0 0 0 33 0 0 0 0 0 0 0 0 0 0 0 0 0 0 0 0 0 0 0 0 0 0 30 0 0 0 0 0 0 0 0 0 0 0 
		18 0 0 0 0 37 0 0 37 0 0 0 0 0 0 0 40 0 0 0 0 0 20 0 0 0 0 31 0 0 0 0 0 0 0 0 20 26 0 0 0 0 0 0 0 20 0 0 0 0 0 0 0 0 0 0 0 0 0 0 0 0 0 0 0 0 0 0 0 0 26 29 0 0 0 0 0 0 29 0 0 0 0 0 0 0 0 32 0 0 
		19 31 0 0 0 0 0 0 0 0 0 0 0 27 26 0 0 0 0 0 0 0 0 0 0 32 0 0 0 0 0 0 0 0 26 0 0 0 38 0 34 0 29 0 26 0 0 0 0 0 0 0 0 0 0 28 0 0 0 0 0 0 0 40 0 0 0 0 0 0 0 0 0 0 0 24 0 0 0 0 0 0 0 22 0 0 0 0 0 0 
		20 0 0 0 0 0 0 0 0 0 0 0 0 0 0 0 0 0 0 0 0 0 0 25 0 0 0 0 0 0 0 0 0 0 0 0 0 0 0 0 0 0 0 0 0 0 0 0 0 0 0 0 0 0 37 0 34 0 0 0 0 0 0 26 0 0 0 0 0 0 0 0 0 0 0 0 0 0 0 0 0 0 0 0 22 0 0 0 0 0 
		21 0 0 0 0 23 0 0 0 0 0 0 0 0 0 0 0 0 0 20 0 0 0 0 0 0 0 26 0 0 0 0 0 0 0 0 0 0 0 0 0 0 0 0 0 0 0 0 38 0 24 0 0 0 0 0 0 0 0 0 0 24 0 0 0 0 0 0 0 0 0 0 0 0 27 0 21 0 30 0 0 0 0 0 0 0 0 35 0 0 
		22 0 0 0 0 0 0 31 0 35 0 0 35 0 0 0 0 26 0 0 0 25 0 0 0 0 0 0 0 0 0 0 0 0 0 0 0 0 0 0 0 0 0 0 0 0 0 0 20 0 0 0 0 0 0 0 0 0 0 0 0 0 0 0 0 0 0 30 0 0 0 0 0 0 0 0 36 0 0 36 0 0 0 0 0 29 0 0 0 0 
		23 0 0 0 0 0 0 0 0 0 0 0 0 0 0 0 0 0 32 0 0 0 0 0 0 0 0 0 0 0 0 0 0 0 0 0 0 0 0 0 0 0 0 0 0 0 0 0 22 0 0 23 0 0 0 0 0 0 0 0 0 0 0 0 0 0 0 0 0 0 0 0 39 0 0 21 0 0 29 0 0 0 0 0 0 0 0 27 0 0 
		24 0 29 0 0 0 0 0 0 0 0 0 26 0 0 26 0 0 0 0 32 0 0 0 0 0 0 0 0 0 0 0 0 0 0 36 0 0 29 38 0 0 0 39 0 0 0 0 0 24 0 0 0 25 0 0 33 0 0 0 0 0 0 0 0 0 0 0 0 0 0 0 0 0 0 0 0 0 0 0 0 0 0 0 0 0 0 0 0 0 
		25 0 0 0 0 0 39 0 0 0 0 0 0 0 0 0 0 0 0 0 0 0 0 0 0 0 0 0 0 0 0 27 0 37 0 0 0 0 0 0 31 0 0 0 0 0 0 0 0 0 0 0 0 0 0 0 0 0 0 0 0 0 0 0 0 0 0 0 29 0 0 0 0 0 0 0 0 0 0 0 0 0 24 0 33 0 0 0 0 0 
		26 0 0 0 0 0 0 0 0 0 0 0 34 23 31 0 0 0 30 31 0 0 26 0 0 0 0 0 0 28 0 0 0 0 0 0 0 0 0 0 0 0 0 0 39 0 0 0 0 0 0 0 0 0 0 0 0 0 0 0 0 0 22 0 0 0 0 0 0 0 0 0 0 0 34 0 0 0 0 0 0 25 0 0 0 0 0 20 0 0 
		27 0 0 0 0 38 0 0 0 0 0 0 0 0 0 0 0 0 36 0 0 0 0 0 0 0 0 0 0 38 0 0 31 0 0 0 0 0 0 21 0 0 0 0 0 0 0 0 0 0 0 0 0 0 0 0 0 0 0 0 33 0 0 0 0 20 0 0 0 0 0 0 0 0 0 0 0 0 0 0 0 0 0 0 0 0 0 0 0 0 
		28 0 0 0 0 0 0 0 0 0 0 0 0 0 0 0 0 0 0 0 0 0 0 0 0 0 0 28 38 0 0 0 0 0 0 0 0 0 0 0 0 0 0 0 0 0 0 0 0 0 0 38 0 0 0 0 0 0 0 0 0 0 0 0 0 0 0 0 0 0 35 0 0 0 0 35 0 0 0 0 24 0 0 0 0 23 38 0 0 0 
		29 0 0 0 0 0 0 0 0 0 38 0 0 0 35 0 0 0 0 0 0 0 0 0 0 0 0 0 0 0 0 0 0 36 0 0 0 0 0 0 0 0 0 0 39 0 0 0 0 0 0 0 0 0 0 25 0 0 0 0 0 0 0 0 0 0 0 0 0 0 0 0 0 0 0 36 0 0 0 0 0 0 0 0 29 0 0 0 21 21 
		30 0 0 0 0 0 0 0 34 0 0 0 0 0 0 31 0 0 0 0 0 0 0 0 0 0 27 0 0 0 0 0 0 0 0 0 39 0 0 20 0 0 0 36 0 31 0 24 23 34 39 0 0 0 34 0 37 0 0 0 0 0 0 0 0 0 0 0 23 0 37 0 0 0 0 0 0 0 0 0 0 0 0 0 0 34 0 0 22 0 
		31 27 0 0 0 0 0 0 0 0 0 0 0 0 0 0 0 0 0 0 0 0 0 0 0 0 0 0 31 0 0 0 0 0 0 0 22 0 0 0 0 0 0 0 0 0 0 0 0 0 0 0 0 36 0 0 0 0 0 0 0 0 0 0 0 0 0 35 0 0 0 24 0 0 0 0 0 29 0 0 0 33 0 0 0 0 0 0 24 0 
		32 0 0 0 20 0 0 35 0 0 0 0 0 31 0 0 0 0 0 0 0 0 0 0 0 0 37 0 0 0 36 0 0 0 0 0 0 0 0 0 0 0 0 0 0 0 0 0 0 0 0 0 0 36 0 0 0 0 31 0 0 0 0 0 0 0 0 38 0 0 0 36 0 0 0 0 33 0 0 0 34 0 32 0 0 0 0 0 0 0 
		33 0 0 31 0 0 0 0 0 0 32 0 0 0 0 0 32 22 0 0 26 0 0 0 0 0 0 0 0 0 0 0 0 0 0 0 0 0 0 0 0 0 0 0 0 0 0 0 0 36 0 0 0 0 0 0 0 0 0 0 0 0 39 0 0 0 0 0 0 20 0 0 0 0 0 0 0 0 0 0 0 0 0 0 0 0 0 0 0 0 
		34 0 0 0 0 0 0 0 0 0 0 0 0 0 0 0 0 24 0 0 0 0 0 0 0 36 0 0 0 0 0 0 0 0 0 0 33 0 0 0 0 0 0 0 0 0 0 0 0 0 0 0 0 0 0 0 20 0 25 0 0 0 0 0 0 0 0 0 0 0 0 0 0 0 0 0 0 0 0 0 0 0 0 0 0 0 0 0 0 0 
		35 0 0 0 26 38 0 0 0 27 0 0 0 25 0 0 0 32 0 20 0 0 0 0 0 0 0 0 0 0 0 39 22 0 0 33 0 0 0 0 23 0 0 0 21 0 0 0 0 0 0 0 0 27 0 0 21 21 34 0 0 0 0 37 0 0 0 0 26 0 0 0 0 0 0 0 0 0 0 0 0 0 0 0 38 0 0 0 0 0 
		36 0 0 0 0 0 0 0 0 0 0 0 0 0 0 0 0 0 0 26 0 0 0 0 0 0 0 0 0 0 0 0 0 0 0 0 0 0 0 30 0 0 0 0 0 0 0 0 0 0 0 0 0 0 0 0 0 33 0 36 25 0 23 0 0 0 0 0 0 0 0 0 0 0 0 0 31 0 0 0 0 0 0 30 0 0 22 0 0 0 
		37 0 20 35 0 0 0 0 0 0 0 0 0 0 0 0 0 0 0 0 38 0 0 0 0 29 0 0 0 0 0 0 0 0 0 0 0 0 0 0 0 0 0 0 0 0 27 0 0 25 0 0 0 28 0 0 0 0 0 0 0 0 0 0 0 0 0 0 0 0 0 0 0 0 0 0 0 33 0 0 38 0 0 34 0 0 0 0 0 0 
		38 30 0 0 0 0 0 0 0 0 0 0 0 29 0 0 0 0 28 0 0 0 0 0 0 38 0 0 21 0 0 20 0 0 0 0 0 30 0 0 0 0 0 0 0 0 0 36 0 0 33 0 0 37 0 0 0 0 0 39 0 0 0 0 0 0 0 0 0 0 0 33 0 0 38 0 0 0 0 0 0 0 0 28 0 0 0 0 0 0 
		39 31 0 30 26 0 0 0 0 21 0 0 0 23 0 0 0 37 0 0 34 0 0 0 0 0 31 0 0 0 0 0 0 0 0 0 23 0 0 0 0 39 0 0 0 0 0 0 0 0 0 0 0 0 20 0 0 0 0 0 0 0 0 26 0 0 30 0 26 30 0 0 0 0 0 0 0 0 0 0 0 0 0 0 0 0 0 0 0 0 
		40 0 0 20 37 0 0 0 0 30 0 22 0 0 0 0 0 0 0 0 0 0 0 0 0 0 0 0 0 0 0 0 0 0 0 0 0 0 0 0 39 0 0 28 0 0 0 27 0 0 0 0 31 0 40 0 0 0 0 0 0 0 0 0 0 0 36 0 0 0 0 0 0 0 0 0 0 0 0 0 32 0 0 0 0 0 0 0 0 0 
		41 27 21 0 0 0 0 0 0 36 0 0 0 24 0 0 0 0 0 0 29 0 0 0 0 0 0 0 0 0 0 0 0 0 0 0 0 0 0 0 0 0 0 0 0 0 0 0 0 0 0 0 0 0 0 0 0 0 0 0 0 0 0 0 37 0 33 0 0 24 0 0 0 0 0 31 0 0 0 0 0 0 0 0 26 0 0 0 0 0 
		42 0 0 0 0 0 22 0 0 0 35 34 0 22 0 35 0 0 28 0 0 0 0 0 0 39 0 0 0 0 0 36 0 0 0 0 0 0 0 0 0 28 0 0 0 0 22 0 0 0 0 0 0 0 0 0 30 0 0 0 0 0 0 0 0 27 0 0 0 0 0 0 0 0 0 0 0 0 0 0 0 0 0 32 0 0 0 0 0 0 
		43 37 0 37 0 0 0 0 0 0 0 0 0 0 0 0 30 0 0 0 26 0 0 0 0 0 0 39 0 0 39 0 0 0 0 0 21 0 0 0 0 0 0 0 0 0 0 0 0 0 0 0 0 0 0 0 0 0 0 0 0 0 0 0 0 0 0 0 0 0 0 0 0 0 0 0 0 23 28 0 0 0 0 0 0 0 0 0 0 36 
		44 0 30 0 0 0 0 0 0 0 31 0 0 0 0 0 0 0 0 20 0 0 0 0 0 0 0 0 0 0 0 31 0 0 0 0 0 0 0 0 0 0 0 0 0 0 28 0 0 22 0 0 26 0 0 0 0 0 0 0 28 0 28 0 0 0 0 0 0 0 0 0 0 32 0 0 21 0 0 0 0 0 0 0 0 0 0 0 0 0 
		45 0 0 0 0 0 0 37 0 0 0 0 38 0 0 0 0 0 0 0 0 0 0 0 0 0 0 0 0 0 0 0 0 0 0 0 0 0 27 0 0 0 0 22 0 28 0 0 0 0 0 38 0 0 0 0 0 23 0 0 26 0 0 0 0 0 0 40 0 0 0 21 0 0 0 0 28 0 0 0 0 0 0 0 0 0 0 0 0 0 
		46 0 0 0 0 0 0 0 0 0 0 0 0 0 0 0 0 0 25 0 0 0 0 0 0 0 0 0 0 0 0 24 0 0 0 0 0 0 0 36 0 27 0 0 0 0 0 0 0 0 0 0 0 0 0 0 0 0 36 24 0 0 0 0 0 0 34 0 32 0 0 28 0 0 0 27 0 0 0 0 0 0 0 40 0 0 0 0 0 39 
		47 0 0 0 0 0 0 0 0 0 0 0 0 0 30 20 0 0 0 0 0 0 38 20 22 0 0 0 0 0 0 23 0 0 0 0 0 0 0 0 0 0 0 0 0 0 0 0 0 0 0 0 38 0 0 0 0 0 0 0 0 0 0 0 0 0 0 23 0 0 34 0 0 0 0 0 0 0 0 20 0 0 0 0 24 39 0 0 0 0 
		48 0 0 0 0 0 0 0 0 0 0 0 0 39 0 27 0 0 0 0 0 0 0 0 0 24 0 0 0 0 0 34 0 0 36 0 0 0 25 0 0 0 0 0 0 22 0 0 0 0 0 0 0 0 0 0 38 0 0 0 0 0 0 0 0 0 0 0 0 29 0 0 21 36 0 0 0 28 0 0 0 0 0 0 0 0 0 36 0 0 
		49 39 0 0 0 0 0 0 0 0 34 0 0 28 0 0 0 0 0 0 0 0 24 0 0 0 0 0 0 0 0 39 0 0 0 0 0 0 0 33 0 0 0 0 0 0 0 0 0 0 0 0 0 0 0 0 0 0 0 0 0 0 0 0 0 0 23 0 0 0 0 0 26 0 0 0 0 28 0 0 0 0 0 35 0 0 0 0 0 0 
		50 0 0 0 0 0 0 25 0 0 0 0 0 0 0 0 0 0 0 0 0 0 0 0 23 0 0 0 0 38 0 0 0 0 0 0 0 0 0 0 0 0 0 0 0 0 38 0 0 0 0 0 0 0 0 20 0 0 0 0 0 0 0 0 0 0 0 0 0 0 31 0 0 0 0 0 36 0 0 0 0 0 0 0 0 0 0 0 0 0 
		51 0 0 0 0 0 0 0 34 0 0 0 0 0 0 0 0 26 0 0 0 0 0 0 0 0 0 0 0 0 0 0 0 0 0 0 0 0 0 0 0 31 0 0 0 26 0 0 38 0 0 0 0 0 0 0 0 0 23 0 0 37 0 0 0 0 0 0 0 0 0 0 0 0 0 0 0 0 0 27 0 0 0 0 0 0 0 0 0 0 
		52 0 0 0 0 0 0 0 0 26 0 0 0 0 29 0 0 0 0 0 0 0 0 0 0 25 0 0 0 0 0 0 36 36 0 0 27 0 28 37 0 0 0 0 0 0 0 0 0 0 0 0 0 0 29 0 0 0 0 0 0 0 0 21 0 0 0 0 0 0 30 0 30 0 0 35 0 22 0 0 0 23 0 0 0 0 0 0 0 0 
		53 0 0 0 23 0 0 0 0 0 0 0 0 0 0 0 0 0 0 0 0 37 0 0 0 0 0 0 0 0 0 34 0 0 0 0 0 0 0 0 20 40 0 0 0 0 0 0 0 0 0 0 0 29 0 0 38 0 34 0 0 0 0 0 0 0 22 0 0 37 0 0 0 0 0 0 0 0 0 0 0 0 0 0 0 0 0 0 0 0 
		54 0 0 34 0 0 0 0 0 0 0 0 0 0 0 0 0 0 33 0 28 0 0 0 0 0 0 0 0 0 25 0 0 0 0 0 0 0 0 0 0 0 0 0 0 0 0 0 0 0 0 20 0 0 0 0 0 0 0 0 0 0 0 0 0 0 39 0 0 0 0 0 0 0 0 0 0 26 0 0 0 0 0 0 30 0 0 0 0 0 
		55 0 0 0 37 0 0 0 0 0 0 27 0 0 0 0 0 0 0 0 0 34 0 0 0 33 0 0 0 0 0 37 0 0 0 20 21 0 0 0 0 0 0 30 0 0 0 0 0 38 0 0 0 0 38 0 0 0 0 0 0 0 0 38 0 0 36 0 0 0 0 0 0 0 0 0 0 0 0 0 25 0 0 0 0 0 0 0 0 0 
		56 0 0 0 0 28 0 0 0 0 0 0 0 0 0 0 0 0 0 0 0 0 0 0 0 0 0 0 0 0 0 0 0 0 0 0 21 33 0 0 0 0 0 0 0 0 23 0 0 0 0 0 0 0 0 0 0 0 0 26 39 0 0 0 0 0 0 0 0 0 0 0 0 0 0 26 0 0 0 0 0 0 0 24 0 21 0 0 0 33 
		57 0 0 0 0 0 0 0 0 0 0 0 0 36 0 0 0 0 0 0 0 0 0 0 0 0 0 0 0 0 0 0 0 31 0 25 34 0 0 0 0 0 0 0 0 0 0 36 0 0 0 0 23 0 34 0 0 0 0 0 0 0 0 0 32 0 0 0 23 0 0 0 0 0 0 0 0 0 0 0 0 0 21 0 0 0 0 35 0 0 
		58 0 0 0 0 0 0 21 24 0 0 0 0 0 0 0 0 0 0 0 0 0 0 0 0 0 0 0 0 0 0 0 0 0 0 0 0 36 0 39 0 0 0 0 0 0 0 24 0 0 0 0 0 0 0 0 0 26 0 0 0 0 0 0 0 0 0 0 0 0 0 0 0 0 0 0 0 40 0 0 0 0 0 0 0 0 0 0 0 0 
		59 0 32 0 0 0 23 0 0 26 33 0 0 0 0 0 0 0 0 0 0 0 0 0 0 0 0 0 33 0 0 0 0 0 0 0 0 25 0 0 0 0 0 0 0 28 26 0 0 0 0 0 0 0 0 0 0 39 0 0 0 0 31 27 0 0 21 0 0 0 0 0 21 0 0 0 0 0 0 0 0 0 0 0 0 0 0 0 0 0 
		60 0 0 40 0 0 0 0 36 0 0 0 0 0 0 23 0 0 0 0 0 0 24 0 0 0 0 0 0 0 0 0 0 0 0 0 0 0 0 0 0 0 0 0 0 0 0 0 0 0 0 0 37 0 0 0 0 0 0 0 0 0 0 0 0 0 0 0 0 0 0 0 0 0 0 0 0 0 0 0 0 0 0 26 28 0 0 0 0 0 
		61 0 0 0 0 0 0 25 0 0 0 0 0 0 0 0 0 0 0 0 0 0 0 0 0 0 0 22 0 0 0 0 0 0 39 0 0 23 0 0 0 0 0 0 0 28 0 0 0 0 0 0 0 0 0 0 0 0 0 0 31 0 0 0 0 0 0 0 0 0 0 0 0 0 0 0 34 0 26 0 0 0 0 0 0 0 0 0 0 0 
		62 0 0 0 0 0 0 0 0 0 0 0 0 0 0 0 0 0 0 0 40 26 0 0 0 0 0 0 0 0 0 0 0 0 0 0 37 0 0 0 26 0 0 0 0 0 0 0 0 0 0 0 0 21 0 0 38 0 0 0 27 0 0 0 0 0 0 0 0 0 0 0 0 0 0 0 0 0 0 0 0 0 28 34 0 0 0 0 0 22 
		63 0 0 0 0 0 0 0 0 0 0 20 0 0 0 0 0 0 0 0 0 0 0 0 0 0 0 0 0 0 0 0 0 0 0 0 0 0 0 0 0 0 37 0 0 0 0 0 0 0 0 0 0 0 0 0 0 0 32 0 0 0 0 0 0 0 0 0 24 0 31 0 0 0 0 0 0 0 0 0 31 0 0 27 28 0 0 0 32 0 
		64 0 0 0 0 0 0 0 0 0 0 0 0 0 0 0 0 32 0 0 0 0 0 0 0 0 0 0 20 0 0 0 0 0 0 0 0 0 0 0 0 0 0 27 0 0 0 0 0 0 0 0 0 0 0 0 0 0 0 0 0 0 0 0 0 0 0 0 0 0 0 0 0 0 0 0 0 0 0 0 0 0 0 0 0 0 0 0 0 0 
		65 0 0 0 21 0 30 0 0 0 0 0 0 0 0 0 0 0 0 0 0 0 0 0 0 0 0 0 0 0 0 0 0 0 0 0 0 0 0 0 30 36 33 0 0 0 0 34 0 0 23 0 0 0 22 39 36 0 0 0 21 0 0 0 0 0 0 0 0 21 0 0 0 0 0 0 0 0 0 0 0 0 26 28 0 0 0 0 0 0 
		66 0 0 0 0 0 33 36 0 0 0 23 20 0 0 0 0 40 0 0 0 0 0 30 0 0 0 0 0 0 0 0 35 38 0 0 0 0 0 0 0 0 0 0 0 0 40 0 23 0 0 0 0 0 0 0 0 0 0 0 0 0 0 0 0 0 0 0 0 0 28 0 33 0 0 36 0 0 0 0 27 0 0 0 0 25 0 0 29 0 
		67 0 0 0 0 0 0 0 0 30 0 0 0 0 0 28 0 0 0 0 0 0 0 0 0 0 29 0 0 0 0 23 0 0 0 0 26 0 0 0 26 0 0 0 0 0 0 32 0 0 0 0 0 0 0 0 0 0 23 0 0 0 0 0 24 0 0 0 0 0 0 0 0 0 0 0 0 24 0 0 0 0 21 0 36 0 0 0 0 0 
		68 0 37 0 0 0 0 0 0 0 0 0 0 0 0 0 0 0 0 0 0 0 0 0 0 0 0 0 0 0 0 0 0 0 20 0 0 0 0 0 30 0 24 0 0 0 0 0 0 29 0 0 0 0 37 0 0 0 0 0 0 0 0 0 0 0 21 0 0 0 0 32 0 0 0 0 0 0 0 0 0 0 0 0 0 0 0 0 20 0 
		69 0 0 0 0 0 0 0 0 0 0 0 0 0 0 33 0 0 0 26 0 0 0 0 0 0 0 0 0 35 0 37 0 0 0 0 0 0 0 0 0 0 0 0 0 0 0 0 34 0 0 31 0 30 0 0 0 0 0 0 0 0 0 0 31 0 0 28 0 0 0 0 0 0 0 0 0 40 0 0 0 0 0 0 0 0 0 33 0 0 
		70 0 0 0 27 26 0 0 35 0 0 0 0 0 0 0 0 0 0 29 0 0 0 0 0 0 0 0 0 0 0 0 24 36 0 0 0 0 0 33 0 0 0 0 0 0 21 28 0 0 0 0 0 0 0 0 0 0 0 0 0 0 0 0 0 0 0 0 0 32 0 0 0 0 37 0 0 0 0 0 0 0 0 0 0 0 0 0 0 0 
		71 0 0 0 0 0 0 0 0 0 0 0 0 0 0 20 40 0 0 0 0 0 0 0 39 0 0 0 0 0 0 0 0 0 0 0 0 0 0 0 0 0 0 0 0 0 0 0 0 21 26 0 0 30 0 0 0 0 0 0 21 0 0 0 0 0 0 33 0 0 0 0 0 0 0 0 0 32 0 0 0 0 0 0 21 27 0 0 24 20 
		72 0 39 0 0 0 34 0 0 0 0 0 0 0 0 0 0 0 0 0 0 0 0 0 0 0 0 0 0 0 0 0 0 0 0 0 0 0 0 0 0 0 0 0 0 32 0 0 0 36 0 0 0 0 0 0 0 0 0 0 0 0 0 0 0 0 0 0 0 0 0 0 0 0 0 0 0 0 0 0 0 0 0 0 0 0 0 0 22 0 
		73 0 0 0 0 0 0 0 0 0 0 0 0 0 0 0 0 0 0 0 0 0 27 0 0 0 0 34 0 0 0 0 0 0 0 0 0 0 0 38 0 0 0 0 0 0 0 0 0 0 0 0 0 0 0 0 0 0 0 0 0 0 0 0 0 0 0 0 0 0 0 37 0 0 0 0 0 0 0 0 0 0 0 0 32 0 23 0 0 0 
		74 0 0 0 0 0 0 23 0 0 0 0 0 0 0 0 0 0 0 0 24 0 0 0 21 0 0 0 0 35 36 0 0 0 0 0 0 0 0 0 0 0 31 0 0 0 0 27 0 0 0 0 0 35 0 0 0 26 0 0 0 0 0 0 0 0 0 36 0 0 0 0 0 0 0 0 0 0 0 0 0 21 0 24 31 0 0 0 29 0 
		75 0 31 0 0 0 0 0 0 0 0 0 0 0 0 0 0 0 0 0 0 0 21 36 0 0 0 0 0 0 0 0 0 33 0 0 0 31 0 0 0 0 0 0 0 21 28 0 0 0 0 36 0 0 0 0 0 0 0 0 0 0 34 0 0 0 0 0 0 0 0 0 0 0 0 0 0 0 0 0 0 0 0 0 0 0 0 0 0 0 
		76 0 0 0 0 0 0 0 0 0 0 32 0 0 0 0 0 0 0 0 0 0 0 0 0 0 0 0 0 0 0 0 29 0 0 0 0 0 33 0 0 0 0 0 23 0 0 0 0 28 28 0 0 22 0 26 0 0 0 40 0 0 0 0 0 0 0 0 24 0 40 0 32 0 0 0 0 0 0 0 0 0 32 0 0 0 0 0 0 0 
		77 0 24 0 0 0 39 0 0 0 0 0 0 21 0 0 0 0 30 29 0 0 30 0 29 0 0 0 0 0 0 0 0 0 0 0 0 0 0 0 0 0 0 0 28 0 0 0 0 0 0 0 0 0 0 0 0 0 0 0 0 0 26 0 0 0 0 0 0 0 0 0 0 0 0 0 0 0 0 0 0 0 0 0 0 0 0 0 0 0 
		78 0 0 0 0 0 0 0 0 0 0 22 0 0 0 0 0 0 0 0 0 0 0 36 0 0 0 0 0 0 0 0 0 0 0 0 0 0 0 0 0 0 0 0 0 0 0 0 20 0 0 0 27 0 0 0 0 0 0 0 0 0 0 0 0 0 0 0 0 0 0 0 0 0 0 0 0 0 0 0 0 0 0 37 0 0 0 0 0 39 
		79 0 0 0 0 0 0 0 0 0 0 0 0 0 0 0 0 0 0 0 0 0 0 0 0 0 0 0 0 24 0 0 0 34 0 0 0 0 38 0 0 32 0 0 0 0 0 0 0 0 0 0 0 0 0 0 25 0 0 0 0 0 0 0 31 0 0 27 0 0 0 0 0 0 0 0 0 0 0 0 0 0 0 0 0 0 0 0 0 0 
		80 0 0 40 0 0 33 33 0 0 0 0 0 0 23 0 24 0 0 0 0 0 0 0 0 0 0 25 0 0 0 0 33 0 0 0 0 0 0 0 0 0 0 0 0 0 0 0 0 0 0 0 0 23 0 0 0 0 0 0 0 0 0 0 0 0 0 0 0 0 0 0 0 0 0 21 0 0 0 0 0 0 0 0 0 0 0 0 0 0 
		81 0 0 0 31 27 0 0 0 36 0 0 0 0 0 0 0 34 0 0 0 0 0 0 0 0 24 0 0 0 0 0 0 32 0 0 0 0 0 0 0 0 0 0 0 0 0 0 0 0 0 0 0 0 0 0 0 0 21 0 0 0 0 28 0 0 26 0 21 0 0 0 0 0 0 0 0 32 0 0 0 0 0 0 38 21 0 0 0 0 
		82 34 0 0 0 38 0 0 0 0 0 0 0 0 0 0 0 0 0 0 22 0 0 0 0 0 0 0 0 0 0 0 0 0 0 0 0 30 34 28 0 0 0 32 0 0 0 40 0 0 35 0 0 0 0 0 0 24 0 0 0 26 0 34 27 0 28 0 0 0 0 0 0 0 0 24 0 0 0 37 0 0 0 0 0 0 0 0 35 0 
		83 0 0 0 27 0 39 0 0 36 0 0 0 0 0 0 0 0 0 0 0 22 0 0 0 0 33 0 0 0 29 0 0 0 0 0 38 0 0 0 0 0 26 0 0 0 0 0 24 0 0 0 0 0 0 30 0 0 0 0 0 28 0 0 28 0 0 0 36 0 0 0 21 0 32 31 0 0 0 0 0 0 38 0 0 0 0 0 0 0 
		84 0 0 22 0 31 36 0 33 0 0 0 38 0 0 0 38 0 0 0 0 0 0 29 0 0 0 0 0 23 0 34 0 0 0 0 0 0 0 0 0 0 0 0 0 0 0 0 39 0 0 0 0 0 0 0 0 21 0 0 0 0 0 0 0 0 0 25 0 0 0 0 27 0 0 0 0 0 0 0 0 0 21 0 0 0 0 0 0 0 
		85 0 0 0 0 0 0 26 0 0 0 0 0 0 0 0 0 0 0 0 0 0 0 0 0 0 0 0 0 38 0 0 0 0 0 0 0 22 0 0 0 0 0 0 0 0 0 0 0 0 0 0 0 0 0 0 0 0 0 0 0 0 0 0 0 0 0 0 0 0 0 0 0 0 23 0 0 0 0 0 0 0 0 0 0 0 0 0 0 0 
		86 0 36 0 0 29 0 0 0 0 0 0 0 0 0 0 32 0 0 32 0 0 35 0 27 0 0 20 0 0 0 0 0 0 0 0 0 0 0 0 0 0 0 0 0 0 0 0 0 36 0 0 0 0 0 0 0 0 35 0 0 0 0 0 0 0 0 0 0 0 33 0 0 0 0 0 0 0 0 0 0 0 0 0 0 0 0 0 0 28 
		87 38 0 0 0 39 0 0 0 0 0 24 0 22 0 0 0 0 0 0 0 0 0 0 0 0 0 0 0 0 21 22 24 0 0 0 0 0 0 0 0 0 0 0 0 0 0 0 0 0 0 0 0 0 0 0 0 0 0 0 0 0 0 0 32 0 0 29 0 20 0 0 24 22 0 29 0 0 0 0 0 0 0 35 0 0 0 0 0 0 
		88 0 0 0 0 0 28 0 0 0 0 0 0 0 0 38 0 0 0 0 0 0 0 0 0 0 0 0 0 0 21 0 0 0 0 0 0 0 0 0 0 0 0 0 36 0 0 39 0 0 0 0 0 0 0 0 0 33 0 0 0 0 0 22 0 0 0 0 0 0 0 0 20 0 0 0 0 0 0 39 0 0 0 0 0 0 0 28 0 0 
;
